; benchmark generated from python API
(set-info :status unknown)
(declare-fun L_2 () Real)
(declare-fun S_2 () Real)
(declare-fun A_2 () Real)
(declare-fun S_3 () Real)
(declare-fun L_3 () Real)
(declare-fun A_3 () Real)
(declare-fun S_4 () Real)
(declare-fun A_4 () Real)
(declare-fun L_1 () Real)
(declare-fun S_1 () Real)
(declare-fun A_1 () Real)
(declare-fun L_0 () Real)
(declare-fun S_0 () Real)
(declare-fun A_0 () Real)
(assert
 (let (($x34 (>= L_0 0.0)))
 (let (($x43994 (<= (+ (* (- 1.0) A_3) L_3 (* 2.0 S_1) (* (- 1.0) S_0)) (- 5.0))))
 (let ((?x6580 (* (- (/ 1.0 2.0)) S_0)))
 (let ((?x4501 (* (/ 1.0 2.0) S_1)))
 (let ((?x431 (* (- 1.0) L_2)))
 (let ((?x341 (* (- 1.0) A_3)))
 (let ((?x18120 (+ ?x341 A_2 L_3 ?x431 ?x4501 ?x6580)))
 (let (($x871 (= (+ L_3 ?x431) 0.0)))
 (let ((?x1379 (+ ?x341 A_2 ?x431 L_3)))
 (let (($x43457 (<= ?x1379 (- 10.0))))
 (let (($x78919 (or $x871 (<= (+ ?x341 A_1 (* (- 1.0) L_1) L_3) (- 15.0)) (<= (+ ?x341 S_0 L_3) (- 20.0)) $x43457)))
 (let (($x42852 (<= (+ ?x341 (* (- 2.0) A_0) L_3 (* 3.0 S_1) (* 2.0 L_0)) (- 5.0))))
 (let (($x76644 (or $x871 $x42852 (<= (+ ?x341 A_2 (* (- 1.0) A_0) L_3 ?x431 S_1 L_0) (- 5.0)))))
 (let (($x44192 (<= (+ (* (- 2.0) A_2) A_1 (* (- 1.0) L_1) S_3 (* 2.0 L_2)) (- 10.0))))
 (let (($x44025 (<= (+ (* (- 1.0) A_2) (* (/ 2.0 3.0) S_3) (* (/ 1.0 3.0) S_0) L_2) (- 5.0))))
 (let (($x873 (= (+ L_2 (* (- 1.0) L_1)) 0.0)))
 (let (($x78355 (or $x871 (<= (+ ?x341 (* (/ 1.0 2.0) S_4) (* (/ 1.0 2.0) S_2) L_3) (- 5.0)))))
 (let ((?x1088 (* 3.0 L_2)))
 (let ((?x1049 (* (- 2.0) L_1)))
 (let ((?x1016 (* 2.0 A_1)))
 (let ((?x1085 (* (- 3.0) A_2)))
 (let (($x42671 (<= (+ (* (- 1.0) A_2) (* (/ 1.0 2.0) S_4) (* (/ 1.0 2.0) S_0) L_2) (- 5.0))))
 (let ((?x6132 (* 2.0 S_4)))
 (let ((?x1292 (* 2.0 L_3)))
 (let ((?x345 (* (- 1.0) A_2)))
 (let ((?x507 (* (- 2.0) A_3)))
 (let (($x78875 (or $x873 (<= (+ ?x341 ?x345 A_1 L_3 S_4 (* (- 1.0) L_1) L_2) (- 5.0)) (<= (+ ?x507 ?x345 ?x1292 ?x6132 S_0 L_2) (- 5.0)))))
 (let (($x78306 (or $x873 (<= (+ ?x345 S_0 L_2) (- 15.0)) (<= (+ ?x345 A_1 (* (- 1.0) L_1) L_2) (- 10.0)))))
 (let (($x17150 (<= (+ A_2 (* (- 1.0) A_0) (* (- 1.0) S_4) ?x431 S_1 L_0) 0.0)))
 (let (($x4496 (<= (+ (* (- 1.0) A_0) (* (- (/ 1.0 2.0)) S_4) (* (/ 3.0 2.0) S_1) L_0) 0.0)))
 (let (($x850 (<= (+ A_3 (* (- 1.0) L_3) (* (- 1.0) S_4)) 0.0)))
 (let (($x44464 (<= (+ ?x341 (* (- (/ 1.0 2.0)) A_0) (* (/ 3.0 2.0) S_2) (* (/ 1.0 2.0) L_0) L_3) (- 5.0))))
 (let (($x78523 (or $x871 (<= (+ ?x341 (* (/ 3.0 2.0) S_2) (* (- (/ 1.0 2.0)) S_1) L_3) (- 5.0)))))
 (let (($x45572 (<= (+ ?x341 (* (/ 1.0 3.0) A_1) (* (- (/ 1.0 3.0)) L_1) (* (/ 2.0 3.0) S_4) L_3) (- 5.0))))
 (let (($x43154 (<= (+ ?x341 (* (/ 1.0 2.0) A_2) (* (- (/ 1.0 2.0)) L_2) (* (/ 1.0 2.0) S_4) L_3) (- 5.0))))
 (let (($x78134 (or $x871 $x43154 (<= (+ ?x341 (* (/ 3.0 4.0) S_4) (* (/ 1.0 4.0) S_0) L_3) (- 5.0)) $x45572)))
 (let (($x43171 (<= (- 5.0) (+ (* (- (/ 1.0 2.0)) A_2) (* (/ 1.0 2.0) S_0) (* (/ 1.0 2.0) L_2)))))
 (let (($x42160 (<= (+ (* (/ 1.0 2.0) A_1) (* (- (/ 1.0 2.0)) L_1) (* (- (/ 1.0 2.0)) S_4)) (- 5.0))))
 (let (($x15540 (<= (+ A_2 (* (- 1.0) S_4) ?x431) (- 5.0))))
 (let (($x77435 (or $x871 (<= (+ ?x341 L_3 (* (/ 4.0 3.0) S_2) (* (- (/ 1.0 3.0)) S_0)) (- 5.0)))))
 (let ((?x4505 (* (/ 1.0 2.0) S_4)))
 (let ((?x6586 (* (/ 1.0 2.0) L_2)))
 (let ((?x349 (* (- 1.0) A_1)))
 (let ((?x6581 (* (- (/ 1.0 2.0)) A_2)))
 (let (($x875 (= (+ L_1 (* (- 1.0) L_0)) 0.0)))
 (let ((?x9107 (* 5.0 L_3)))
 (let ((?x9113 (* (- 5.0) L_2)))
 (let ((?x924 (* (- 1.0) S_0)))
 (let ((?x9085 (* 5.0 A_2)))
 (let ((?x9108 (* (- 5.0) A_3)))
 (let ((?x1061 (* (- 2.0) L_2)))
 (let ((?x390 (* (- 1.0) S_1)))
 (let ((?x1064 (* 2.0 A_2)))
 (let ((?x1319 (* 3.0 L_3)))
 (let ((?x1333 (* (- 3.0) L_2)))
 (let ((?x1352 (* 3.0 A_2)))
 (let ((?x1313 (* (- 3.0) A_3)))
 (let (($x76967 (or $x875 (<= (+ ?x349 (* (/ 1.0 3.0) S_3) (* (/ 2.0 3.0) S_0) L_1) (- 5.0)))))
 (let ((?x1012 (* 2.0 L_2)))
 (let ((?x505 (* (- 1.0) L_0)))
 (let ((?x418 (* (- 1.0) L_3)))
 (let ((?x1053 (* (- 2.0) A_2)))
 (let (($x76991 (or $x873 (<= (+ (* 2.0 A_3) ?x1085 (* (- 2.0) L_3) S_0 ?x1088) (- 5.0)) (<= (+ A_3 ?x1053 A_1 ?x418 ?x505 ?x1012) (- 5.0)))))
 (let (($x856 (<= (+ A_2 (* (- 1.0) S_3) ?x431) 0.0)))
 (let (($x26096 (<= (+ ?x341 A_1 L_3 S_4 (* (- 1.0) S_3) (* (- 1.0) L_1)) 0.0)))
 (let (($x78242 (or $x856 (<= (+ ?x507 ?x1292 ?x6132 (* (- 1.0) S_3) S_0) 0.0) $x26096)))
 (let (($x45998 (or $x856 (<= (+ A_1 (* (- 1.0) L_1) (* (- 1.0) S_3)) (- 5.0)) (<= (+ (* (- (/ 1.0 2.0)) S_3) (* (/ 1.0 2.0) S_0)) (- 5.0)))))
 (let (($x77698 (or $x871 (<= (+ ?x507 ?x1064 (* (- 1.0) A_0) S_2 L_0 ?x1061 ?x1292) 0.0))))
 (let (($x862 (<= (+ A_1 (* (- 1.0) S_2) (* (- 1.0) L_1)) 0.0)))
 (let (($x33375 (<= 0.0 (+ ?x341 ?x345 A_1 S_4 (* (- 1.0) L_1) L_2 L_3))))
 (let (($x38677 (not $x33375)))
 (let (($x1378 (<= (+ ?x341 A_2 A_1 (* (- 1.0) L_1) ?x390 ?x431 L_3) 0.0)))
 (let ((?x13298 (* (/ 5.0 2.0) L_3)))
 (let ((?x13308 (* (- (/ 5.0 2.0)) L_1)))
 (let ((?x13595 (* (/ 5.0 2.0) A_1)))
 (let ((?x13319 (* (- (/ 5.0 2.0)) A_3)))
 (let (($x13590 (<= (+ ?x13319 ?x13595 S_4 ?x924 ?x13308 ?x13298) 0.0)))
 (let (($x41287 (<= (+ ?x507 ?x1064 A_1 ?x1292 ?x1061 ?x924 (* (- 1.0) L_1)) (- 5.0))))
 (let (($x3699 (<= (+ ?x507 ?x1064 ?x1016 ?x1292 ?x1061 (* (- 1.0) S_2) ?x924 ?x1049) 0.0)))
 (let ((?x6077 (* (- (/ 3.0 2.0)) L_1)))
 (let ((?x3915 (* (/ 3.0 2.0) L_3)))
 (let ((?x5278 (* (/ 3.0 2.0) A_1)))
 (let ((?x5498 (* (- (/ 3.0 2.0)) A_3)))
 (let (($x5733 (<= (+ ?x5498 ?x5278 ?x3915 S_2 ?x924 ?x6077) 0.0)))
 (let ((?x3990 (* 4.0 L_3)))
 (let ((?x1891 (* (- 4.0) L_1)))
 (let ((?x4573 (* (- 2.0) S_1)))
 (let ((?x1975 (* 4.0 A_1)))
 (let ((?x4011 (* (- 4.0) A_3)))
 (let ((?x444 (* (- 1.0) L_1)))
 (let ((?x867 (* (- 1.0) A_0)))
 (let (($x1370 (<= (+ ?x341 A_2 A_1 ?x867 ?x444 L_0 ?x431 L_3) 0.0)))
 (let (($x3701 (<= (+ ?x341 ?x1064 A_1 L_3 (* (- 1.0) S_4) ?x1061 ?x924 ?x444) 0.0)))
 (let (($x9109 (<= (+ ?x4011 (* 4.0 A_2) S_4 ?x390 (* (- 4.0) L_2) ?x3990) 0.0)))
 (let (($x45440 (<= (+ (* (- 4.0) A_1) S_4 (* 3.0 S_0) (* 4.0 L_1)) (- 20.0))))
 (let ((?x5735 (* (- (/ 1.0 2.0)) L_1)))
 (let ((?x5298 (* (/ 1.0 2.0) L_3)))
 (let ((?x5877 (* (/ 1.0 2.0) A_1)))
 (let ((?x4454 (* (- (/ 1.0 2.0)) A_3)))
 (let ((?x4830 (* 2.0 L_0)))
 (let ((?x4516 (* 2.0 S_1)))
 (let ((?x5634 (* (- 2.0) A_0)))
 (let (($x9097 (<= (+ ?x4011 (* 4.0 A_2) ?x867 S_4 L_0 (* (- 4.0) L_2) ?x3990) 0.0)))
 (let (($x78212 (or $x862 $x873 (<= (+ A_3 ?x345 ?x418 (* (- 1.0) S_2) S_0 L_2) 0.0))))
 (let ((?x1291 (* (- 2.0) L_3)))
 (let ((?x357 (* (- 1.0) S_4)))
 (let ((?x1321 (* 2.0 A_3)))
 (let (($x77214 (or $x871 $x43154 (<= (+ ?x341 (* (/ 2.0 3.0) S_4) (* (/ 1.0 3.0) S_1) L_3) (- 5.0)))))
 (let (($x78954 (or $x873 (<= (+ A_3 ?x345 A_1 ?x444 (* (- 1.0) S_3) L_2 ?x418) 0.0) (<= (+ ?x1321 ?x1053 ?x1291 (* (- 1.0) S_3) S_0 ?x1012) 0.0))))
 (let (($x17381 (<= (+ (* 3.0 A_3) ?x1085 (* (- 3.0) L_3) ?x357 S_0 ?x1088) 0.0)))
 (let ((?x1087 (* (- 3.0) L_1)))
 (let ((?x4730 (* 2.0 S_3)))
 (let ((?x1086 (* 3.0 A_1)))
 (let (($x44773 (or $x850 $x42160 $x43171 (<= (+ (* (- (/ 1.0 3.0)) S_4) (* (/ 1.0 3.0) S_0)) (- 5.0)))))
 (let (($x43535 (or $x875 (<= (+ ?x349 (* (/ 1.0 2.0) S_2) (* (/ 1.0 2.0) S_0) L_1) (- 5.0)))))
 (let (($x78780 (or $x871 (<= (+ ?x1313 ?x1352 S_4 (* (- 1.0) S_2) ?x1333 ?x1319) 0.0))))
 (let (($x77976 (or $x871 (<= (+ ?x507 ?x1064 S_3 (* (- 1.0) S_2) ?x1061 ?x1292) 0.0))))
 (let (($x77414 (or $x873 (<= (+ A_3 ?x345 (* (- 1.0) S_3) S_1 L_2 ?x418) 0.0))))
 (let ((?x379 (* (- 1.0) S_2)))
 (let ((?x6607 (* (- (/ 1.0 2.0)) L_2)))
 (let ((?x6616 (* (/ 1.0 2.0) A_2)))
 (let (($x77654 (or $x871 (<= (+ ?x341 ?x6616 A_1 ?x6607 ?x4505 ?x379 ?x444 L_3) 0.0) $x38677)))
 (let (($x17408 (or $x856 (<= (+ (* (/ 1.0 3.0) S_4) (* (- 1.0) S_3) (* (/ 2.0 3.0) S_1)) 0.0))))
 (let (($x16181 (or $x850 (<= (+ ?x357 ?x4516 ?x924) 0.0) (<= (+ A_2 ?x357 ?x431 ?x4501 ?x6580) 0.0))))
 (let ((?x899 (* 2.0 L_1)))
 (let ((?x4709 (* (- 2.0) S_3)))
 (let ((?x1070 (* (- 2.0) A_1)))
 (let (($x77593 (or $x871 $x875 (<= (+ ?x4454 (* (- (/ 1.0 2.0)) A_1) ?x5298 S_2 (* (/ 1.0 2.0) L_1)) (- 5.0)))))
 (let ((?x5800 (* (- (/ 1.0 2.0)) L_3)))
 (let ((?x5728 (* (/ 1.0 2.0) L_1)))
 (let ((?x5725 (* (- (/ 1.0 2.0)) A_1)))
 (let ((?x4991 (* (/ 1.0 2.0) A_3)))
 (let ((?x5323 (* (/ 3.0 2.0) L_1)))
 (let ((?x5870 (* (- (/ 3.0 2.0)) A_1)))
 (let (($x13792 (<= (+ (* (/ 3.0 2.0) A_3) ?x5870 ?x357 S_0 ?x5323 (* (- (/ 3.0 2.0)) L_3)) 0.0)))
 (let (($x76965 (or $x871 (<= (+ ?x507 ?x1016 ?x5634 ?x1292 (* 2.0 S_2) ?x4830 ?x1049) 0.0))))
 (let (($x4002 (<= (+ ?x4011 (* 4.0 A_2) S_3 ?x924 (* (- 4.0) L_2) ?x3990) 0.0)))
 (let (($x12446 (or $x856 (<= (+ ?x4505 (* (- 1.0) S_3) (* (/ 1.0 2.0) S_0)) 0.0) (<= (+ ?x1975 ?x1891 ?x6132 (* (- 6.0) S_3)) 0.0))))
 (let (($x76969 (or $x871 (<= (+ ?x507 ?x1064 S_4 (* (- 1.0) S_3) ?x1061 ?x1292) 0.0))))
 (let (($x6883 (or $x850 (<= (+ ?x867 (* (- 2.0) S_4) (* 3.0 S_2) L_0) 0.0))))
 (let (($x6119 (<= (+ A_3 ?x349 (* (- 2.0) S_4) (* 2.0 S_2) L_1 ?x431) 0.0)))
 (let ((?x711 (+ L_1 ?x431)))
 (let (($x318 (<= 0.0 ?x711)))
 (let (($x77216 (or $x318 (<= (+ ?x1053 ?x1016 S_4 (* (- 1.0) S_3) ?x1049 ?x1012) 0.0))))
 (let (($x79111 (or $x875 (<= (+ ?x1064 ?x1070 (* (- 1.0) S_3) S_0 ?x899 ?x1061) 0.0))))
 (let (($x931 (<= (+ ?x1352 (* (- 3.0) A_1) ?x357 S_0 (* 3.0 L_1) ?x1333) 0.0)))
 (let ((?x1774 (* 5.0 L_2)))
 (let ((?x2043 (* (- 5.0) L_1)))
 (let ((?x1958 (* 5.0 A_1)))
 (let ((?x1892 (* (- 5.0) A_2)))
 (let (($x1959 (<= (+ (* (- 4.0) A_2) ?x1975 ?x867 S_4 L_0 ?x1891 (* 4.0 L_2)) 0.0)))
 (let (($x1819 (<= (+ (* (- 4.0) A_2) ?x1975 S_4 ?x390 ?x1891 (* 4.0 L_2)) 0.0)))
 (let (($x1600 (<= (+ (* (- 4.0) A_2) ?x1975 S_3 ?x924 ?x1891 (* 4.0 L_2)) 0.0)))
 (let (($x79171 (or $x875 (<= (+ A_2 ?x349 (* (- 1.0) S_3) S_1 L_1 ?x431) 0.0))))
 (let (($x77589 (or $x318 (= (+ ?x341 ?x1064 ?x349 L_3 L_1 ?x1061) 0.0) (not (<= 0.0 (+ A_3 ?x1053 A_1 ?x444 ?x1012 ?x418))))))
 (let (($x96 (>= S_1 S_0)))
 (let (($x99 (>= S_2 S_1)))
 (let (($x102 (>= S_3 S_2)))
 (let (($x105 (>= S_4 S_3)))
 (let (($x107 (>= A_1 A_0)))
 (let (($x108 (>= A_2 A_1)))
 (let (($x109 (>= A_3 A_2)))
 (let (($x110 (>= A_4 A_3)))
 (and $x110 $x109 $x108 $x107 $x105 $x102 $x99 $x96 (or (not (<= 0.0 (+ L_0 ?x444))) $x875) (or $x318 (<= (+ ?x345 S_2 L_2) (- 5.0))) (or (not (<= 0.0 (+ L_2 ?x418))) $x871) (or $x318 (<= (+ ?x1053 ?x1016 ?x867 S_2 L_0 ?x1049 ?x1012) 0.0)) (or $x850 $x875 (<= (+ ?x1064 ?x1070 ?x357 S_1 ?x899 ?x1061) 0.0)) (or (<= (+ ?x349 S_1 L_1) (- 5.0)) $x875) $x77589 (or (<= (+ ?x345 A_1 ?x444 L_2) (- 5.0)) $x318) (or $x318 (<= (+ ?x1053 A_1 S_3 ?x444 ?x1012) (- 5.0))) (or $x318 (<= (+ ?x1085 ?x1016 S_4 ?x1049 ?x1088) (- 5.0))) $x79171 (or $x318 (<= (+ ?x1053 ?x1016 S_2 ?x390 ?x1049 ?x1012) 0.0)) (or $x318 (<= (+ ?x345 A_1 ?x867 S_1 L_0 ?x444 L_2) 0.0)) (or $x318 $x1600) (or $x318 (<= (+ ?x1085 ?x1086 S_2 ?x924 ?x1087 ?x1088) 0.0)) (or $x318 (<= (+ ?x1053 ?x1016 S_1 ?x924 ?x1049 ?x1012) 0.0)) (or $x318 (<= (+ ?x1085 ?x1086 ?x867 S_3 L_0 ?x1087 ?x1088) 0.0)) (or $x875 (<= (+ A_2 ?x349 ?x379 S_0 L_1 ?x431) 0.0)) (or $x875 (<= (+ A_2 ?x1070 S_0 ?x899 ?x431) (- 5.0))) (or $x318 (<= (+ ?x341 ?x345 A_1 L_3 S_4 ?x444 L_2) 0.0)) (or $x318 $x1819) (or $x318 $x1959) (or $x318 (<= (+ ?x1085 ?x1086 S_4 ?x379 ?x1087 ?x1088) 0.0)) (or $x318 (<= (+ ?x1892 ?x1958 S_4 ?x924 ?x2043 ?x1774) 0.0)) (or $x850 $x875 $x931) (or $x318 (<= (+ ?x1085 ?x1086 S_3 ?x390 ?x1087 ?x1088) 0.0)) (or $x318 (<= (+ ?x1053 ?x1016 S_3 ?x379 ?x1049 ?x1012) 0.0)) $x79111 $x77216 (or $x871 (<= (+ ?x341 S_3 L_3) (- 5.0))) (or $x871 (<= ?x1379 (- 5.0))) (or $x318 (<= (+ A_3 ?x345 ?x357 S_2 L_2 ?x418) 0.0)) (or (not $x318) $x873) (or $x850 $x875 (<= (+ A_2 ?x349 ?x357 S_2 L_1 ?x431) 0.0)) (or $x850 $x875 (<= (+ ?x349 ?x357 (* 2.0 S_2) L_1) (- 5.0))) (or $x871 $x875 (<= 0.0 (+ A_3 ?x1053 A_1 ?x444 ?x1012 ?x418))) (or (not $x871) $x850 $x875 $x6119) $x6883 (or $x850 (<= (+ (* (- 3.0) S_4) (* 4.0 S_2) ?x924) 0.0)) (or $x850 (<= (+ ?x349 ?x357 (* 2.0 S_2) L_1) 0.0)) (or $x875 (<= (+ A_3 ?x349 ?x418 ?x357 S_1 L_1) 0.0)) (or $x871 (<= (+ ?x341 A_1 L_3 S_3 ?x379 ?x444) 0.0)) (or $x871 $x875 (<= (+ ?x4991 ?x5725 ?x5800 ?x357 S_2 ?x5728) 0.0)) (or $x850 (<= (+ ?x357 S_2) (- 5.0))) (or $x856 (<= (+ ?x4709 (* 3.0 S_1) ?x924) 0.0)) (or $x850 (<= (+ (* (- 2.0) S_4) (* 3.0 S_2) ?x390) 0.0)) (or $x862 (<= (+ (* (/ 1.0 3.0) S_3) ?x379 (* (/ 2.0 3.0) S_0)) 0.0)) (or $x856 $x875 (<= (+ A_3 ?x349 ?x418 ?x4709 ?x4516 L_1) 0.0)) $x76969 (or $x862 (<= (+ ?x379 S_0) (- 5.0))) (or $x871 (<= (+ ?x341 S_2 L_3) (- 10.0))) (or $x875 (<= (+ ?x4991 ?x5870 S_0 ?x5323 ?x5800) (- 5.0))) (or $x875 (<= (+ A_3 ?x345 ?x349 ?x418 L_2 S_0 L_1) 0.0)) (or $x856 (<= (+ (* (- 1.0) S_3) S_1) (- 5.0))) (or $x856 (<= (+ ?x867 (* (- 1.0) S_3) ?x4516 L_0) 0.0)) $x12446 (or $x871 $x4002) $x76965 (or $x871 (<= (+ ?x1313 ?x1352 S_2 ?x924 ?x1333 ?x1319) 0.0)) (or $x875 $x13792) (or $x862 (<= (+ (* (/ 1.0 4.0) S_4) ?x379 (* (/ 3.0 4.0) S_0)) 0.0)) (or $x875 (<= (+ ?x4991 ?x5725 ?x379 S_0 ?x5728 ?x5800) 0.0)) $x77593 (or $x875 (<= (+ ?x1321 ?x1070 ?x4709 (* 2.0 S_0) ?x899 ?x1291) 0.0)) (or $x856 $x871 (<= (+ ?x341 A_1 L_3 S_1 ?x924 ?x444) 0.0)) (or $x871 (<= (+ ?x341 A_1 L_3 S_1 ?x924 ?x444) 0.0) $x41287) (or $x871 $x1370 (<= (+ ?x341 A_1 L_3 S_1 ?x924 ?x444) 0.0)) $x16181 (or $x871 (<= (+ ?x507 A_2 S_4 ?x431 ?x1292) (- 5.0))) $x17408 (or $x875 (<= (+ ?x349 S_0 L_1) (- 10.0))) (or $x871 (<= (+ ?x5498 ?x5278 S_4 ?x379 ?x6077 ?x3915) 0.0) $x33375) $x77654 (or $x862 (<= (+ ?x341 L_3 S_4 ?x379 S_0) 0.0)) (or $x862 (<= (+ ?x6581 ?x6586 ?x4505 ?x379 S_0) 0.0)) $x77414 $x77976 $x78780 (or $x871 (<= (+ ?x1313 ?x1352 ?x867 S_3 L_0 ?x1333 ?x1319) 0.0)) (or $x873 (<= (+ ?x345 (* (/ 3.0 2.0) S_1) ?x6580 L_2) (- 5.0))) $x43535 (or $x873 (<= (+ ?x345 ?x867 ?x4516 L_0 L_2) (- 5.0))) (or $x850 $x15540 (<= (+ (* (- (/ 1.0 2.0)) S_4) ?x4501) (- 5.0))) (or $x871 (<= (+ ?x507 ?x1016 ?x1292 S_3 ?x924 ?x1049) 0.0) $x41287) (or $x871 $x1378 (<= (+ ?x507 ?x1016 ?x1292 S_3 ?x924 ?x1049) 0.0)) (or $x871 $x1378 (<= (+ ?x1313 ?x1086 ?x1319 ?x4730 ?x4573 ?x1087) 0.0)) (or $x871 $x1370 (<= (+ ?x507 ?x1016 ?x1292 S_3 ?x924 ?x1049) 0.0)) (or $x871 $x3701 (<= (+ ?x507 ?x1016 ?x1292 S_3 ?x924 ?x1049) 0.0)) (or $x871 $x3699 (<= (+ ?x507 ?x1016 ?x1292 S_3 ?x924 ?x1049) 0.0)) $x44773 (or $x871 (<= (+ ?x507 ?x1016 ?x1292 (* 2.0 S_2) ?x4573 ?x1049) 0.0)) (or $x871 $x1370 (<= (+ ?x1313 ?x1086 ?x5634 ?x1319 ?x4730 ?x4830 ?x1087) 0.0)) (or $x873 (<= (+ ?x345 S_1 L_2) (- 10.0))) (or $x871 (<= (+ ?x341 A_2 ?x867 L_3 ?x431 S_1 L_0) 0.0)) (or $x873 (<= (+ ?x1321 ?x1053 A_1 ?x444 ?x357 ?x1012 ?x1291) 0.0) $x17381) (or $x871 (<= (+ ?x507 ?x1064 ?x349 L_1 S_3 ?x1061 ?x1292) 0.0)) (or $x873 (<= (+ A_3 ?x1053 S_1 ?x1012 ?x418) (- 5.0))) $x78954 $x77214 (or $x871 $x43154 (<= (+ ?x5498 ?x5877 S_4 ?x5735 ?x3915) (- 5.0))) (or $x873 (<= (+ ?x1321 ?x1053 ?x357 S_1 ?x1012 ?x1291) 0.0)) (or $x871 (<= ?x18120 0.0)) $x78212 (or $x856 $x871 $x26096) (or $x856 $x871 $x13590) (or $x871 $x9097) (or $x871 (<= (+ ?x341 A_2 ?x349 L_1 S_2 ?x431 L_3) 0.0)) (or $x871 (<= (+ ?x1313 ?x1352 ?x349 L_1 S_4 ?x1333 ?x1319) 0.0)) (or $x871 $x1370 (<= (+ ?x4011 ?x1975 ?x5634 ?x6132 ?x4830 ?x1891 ?x3990) 0.0)) (or $x871 $x1370 (<= (+ ?x341 A_1 ?x5634 L_3 ?x4516 ?x4830 ?x444) 0.0)) (or $x871 (<= (+ ?x4454 ?x5877 ?x5298 ?x5735) (- 5.0))) (or $x875 $x45440) (or $x871 $x9109) (or $x871 $x3699 (<= (+ ?x341 A_1 L_3 S_1 ?x924 ?x444) 0.0)) (or $x871 $x3701 (<= (+ ?x341 A_1 L_3 S_1 ?x924 ?x444) 0.0)) (or $x856 $x871 $x5733) (or $x871 $x5733 $x41287) (or $x871 $x1370 $x5733) (or $x871 $x3701 $x5733) (or $x871 $x1370 $x13590) (or $x875 (<= (+ ?x345 ?x349 S_3 L_2 S_0 L_1) (- 5.0))) (or $x871 (<= (+ ?x4011 ?x1975 ?x6132 ?x4573 ?x1891 ?x3990) 0.0) $x33375) (or $x871 $x1378 $x5733) (or $x871 $x3699 $x13590) (or $x871 $x13590 $x41287) (or $x871 $x1378 $x13590) (or $x871 $x1378 $x38677) (or $x873 (<= (+ ?x345 (* (/ 1.0 2.0) S_3) ?x4501 L_2) (- 5.0))) (or $x862 (<= (+ ?x345 S_3 L_2 ?x379 S_0) 0.0)) $x77698 (or $x871 (<= (+ ?x341 ?x349 L_1 (* 2.0 S_2) L_3) (- 5.0))) $x45998 $x78242 (or $x856 (<= (+ ?x341 L_3 S_4 (* (- 1.0) S_3) S_1) 0.0)) (or $x875 (<= (+ ?x341 ?x349 L_3 S_4 S_0 L_1) (- 5.0))) $x76991 $x76967 (or $x871 (<= (+ ?x1313 ?x1352 S_3 ?x390 ?x1333 ?x1319) 0.0)) (or $x871 (<= (+ ?x507 ?x1064 S_2 ?x390 ?x1061 ?x1292) 0.0)) (or $x873 (<= (+ ?x1085 S_4 ?x4516 ?x1088) (- 15.0))) (or $x871 (<= (+ ?x9108 ?x9085 S_4 ?x924 ?x9113 ?x9107) 0.0)) (or $x875 (<= (+ ?x6581 ?x349 ?x6586 ?x4505 S_0 L_1) (- 5.0))) $x77435 (or $x850 $x15540 $x42160 (not $x43171)) $x78134 $x78523 (or $x871 $x44464) (or $x850 $x4496 $x17150) (or $x873 (<= (+ ?x341 ?x345 L_3 S_4 S_1 L_2) (- 5.0))) $x78306 $x78875 (or $x873 $x42671 (<= (+ ?x1085 ?x1016 ?x1049 S_4 ?x1088) (- 15.0))) $x78355 (or $x873 $x44025 $x44192) $x76644 $x78919 (or $x871 (<= (+ ?x341 S_1 L_3) (- 15.0)) $x43457) (or $x871 (<= ?x18120 (- 5.0)) $x43994) $x34 (<= (+ ?x867 S_0 L_0) 0.0) (<= (+ ?x349 S_1 L_1) 0.0) (<= (+ (* (- 1.0) A_4) L_3 S_4) 0.0) (<= (+ ?x341 L_3 S_3) 0.0) (<= (+ ?x345 S_2 L_2) 0.0))))))))))))))))))))))))))))))))))))))))))))))))))))))))))))))))))))))))))))))))))))))))))))))))))))))))))))))))))))))))))))))))))))))))))))))))))))))))))))))))))))))
(check-sat)
